(set-logic QF_S)
(declare-fun T1_96 () String)
(declare-fun T2_96 () String)
(declare-fun T_3a () String)
(declare-fun T1_92 () String)
(declare-fun T2_92 () String)
(declare-fun T_37 () String)
(declare-fun T2_52 () String)
(declare-fun T2_76 () String)
(declare-fun T2_56 () String)
(declare-fun T2_72 () String)
(declare-fun T2_100 () String)
(declare-fun T1_104 () String)
(declare-fun T_1 () String)
(declare-fun T_7 () String)
(declare-fun T_4 () String)
(declare-fun T2_112 () String)
(declare-fun T_25 () String)
(declare-fun T1_40 () String)
(declare-fun T_40 () String)
(declare-fun T1_44 () String)
(declare-fun T_22 () String)
(declare-fun T1_48 () String)
(declare-fun T_1f () String)
(declare-fun T1_64 () String)
(declare-fun T_28 () String)
(declare-fun T_3d () String)
(declare-fun var_0xINPUT_96446 () String)
(declare-fun T2_44 () String)
(declare-fun T2_20 () String)
(declare-fun T1_28 () String)
(declare-fun T2_40 () String)
(declare-fun T2_24 () String)
(declare-fun T_49 () String)
(declare-fun T_4c () String)
(declare-fun T2_28 () String)
(declare-fun T1_20 () String)
(declare-fun T2_48 () String)
(declare-fun T_1c () String)
(declare-fun T1_24 () String)
(declare-fun T2_80 () String)
(declare-fun T1_84 () String)
(declare-fun T2_84 () String)
(declare-fun T1_80 () String)
(declare-fun T2_68 () String)
(declare-fun T2_88 () String)
(declare-fun T2_64 () String)
(declare-fun T_a () String)
(declare-fun T1_88 () String)
(declare-fun T_d () String)
(declare-fun T_4f () String)
(declare-fun T2_108 () String)
(declare-fun T_52 () String)
(declare-fun T1_8 () String)
(declare-fun T2_60 () String)
(declare-fun T_43 () String)
(declare-fun T1_4 () String)
(declare-fun T1_60 () String)
(declare-fun T1_112 () String)
(declare-fun T1_100 () String)
(declare-fun T2_104 () String)
(declare-fun T1_108 () String)
(declare-fun T_46 () String)
(declare-fun T1_52 () String)
(declare-fun T1_36 () String)
(declare-fun T2_8 () String)
(declare-fun T1_56 () String)
(declare-fun T1_32 () String)
(declare-fun T_2b () String)
(declare-fun T1_12 () String)
(declare-fun T1_72 () String)
(declare-fun T1_68 () String)
(declare-fun T1_76 () String)
(declare-fun T2_4 () String)
(declare-fun T_2e () String)
(declare-fun T2_32 () String)
(declare-fun T_19 () String)
(declare-fun T2_36 () String)
(declare-fun T1_16 () String)
(declare-fun T2_16 () String)
(declare-fun T_16 () String)
(declare-fun T_31 () String)
(declare-fun T_10 () String)
(declare-fun T2_12 () String)
(declare-fun T_34 () String)
(declare-fun T_13 () String)
(assert (and (= T_1 (concat T1_4 T2_4)) (= T2_4 var_0xINPUT_96446) (= (len T1_4) 0) (not (= T_1 "-")) (= T_4 (concat T1_8 T2_8)) (= T2_8 var_0xINPUT_96446) (= (len T1_8) 0) (not (= (len T_4) 0)) (= T_7 (concat T1_12 T2_12)) (= T2_12 var_0xINPUT_96446) (= (len T1_12) 0) (not (= (len T_7) 0)) (= T_a (concat T1_16 T2_16)) (= T2_16 var_0xINPUT_96446) (= (len T1_16) 0) (not (= (len T_a) 0)) (= T_d (concat T1_20 T2_20)) (= T2_20 var_0xINPUT_96446) (= (len T1_20) 0) (not (= T_d "-")) (= T_10 (concat T1_24 T2_24)) (= T2_24 var_0xINPUT_96446) (= (len T1_24) 0) (not (= (len T_10) 0)) (= T_13 (concat T1_28 T2_28)) (= T2_28 var_0xINPUT_96446) (= (len T1_28) 0) (not (= (len T_13) 0)) (= T_16 (concat T1_32 T2_32)) (= T2_32 var_0xINPUT_96446) (= (len T1_32) 0) (not (= (len T_16) 0)) (= T_19 (concat T1_36 T2_36)) (= T2_36 var_0xINPUT_96446) (= (len T1_36) 0) (not (= T_19 "-")) (= T_1c (concat T1_40 T2_40)) (= T2_40 var_0xINPUT_96446) (= (len T1_40) 0) (not (= (len T_1c) 0)) (= T_1f (concat T1_44 T2_44)) (= T2_44 var_0xINPUT_96446) (= (len T1_44) 0) (not (= (len T_1f) 0)) (= T_22 (concat T1_48 T2_48)) (= T2_48 var_0xINPUT_96446) (= (len T1_48) 0) (not (= (len T_22) 0)) (= T_25 (concat T1_52 T2_52)) (= T2_52 var_0xINPUT_96446) (= (len T1_52) 0) (not (= T_25 "-")) (= T_28 (concat T1_56 T2_56)) (= T2_56 var_0xINPUT_96446) (= (len T1_56) 0) (not (= (len T_28) 0)) (= T_2b (concat T1_60 T2_60)) (= T2_60 var_0xINPUT_96446) (= (len T1_60) 0) (not (= (len T_2b) 0)) (= T_2e (concat T1_64 T2_64)) (= T2_64 var_0xINPUT_96446) (= (len T1_64) 0) (not (= (len T_2e) 0)) (= T_31 (concat T1_68 T2_68)) (= T2_68 var_0xINPUT_96446) (= (len T1_68) 0) (not (= T_31 "-")) (= T_34 (concat T1_72 T2_72)) (= T2_72 var_0xINPUT_96446) (= (len T1_72) 0) (not (= (len T_34) 0)) (= T_37 (concat T1_76 T2_76)) (= T2_76 var_0xINPUT_96446) (= (len T1_76) 0) (not (= (len T_37) 0)) (= T_3a (concat T1_80 T2_80)) (= T2_80 var_0xINPUT_96446) (= (len T1_80) 0) (not (= (len T_3a) 0)) (= T_3d (concat T1_84 T2_84)) (= T2_84 var_0xINPUT_96446) (= (len T1_84) 0) (not (= T_3d "-")) (= T_40 (concat T1_88 T2_88)) (= T2_88 var_0xINPUT_96446) (= (len T1_88) 0) (not (= (len T_40) 0)) (= T_43 (concat T1_92 T2_92)) (= T2_92 var_0xINPUT_96446) (= (len T1_92) 0) (not (= (len T_43) 0)) (= T_46 (concat T1_96 T2_96)) (= T2_96 var_0xINPUT_96446) (= (len T1_96) 0) (not (= (len T_46) 0)) (= T_49 (concat T1_100 T2_100)) (= T2_100 var_0xINPUT_96446) (= (len T1_100) 0) (not (= T_49 "-")) (= T_4c (concat T1_104 T2_104)) (= T2_104 var_0xINPUT_96446) (= (len T1_104) 0) (not (= (len T_4c) 0)) (= T_4f (concat T1_108 T2_108)) (= T2_108 var_0xINPUT_96446) (= (len T1_108) 0) (not (= (len T_4f) 0)) (= T_52 (concat T1_112 T2_112)) (= T2_112 var_0xINPUT_96446) (= (len T1_112) 0) (not (= (len T_52) 0))))
(check-sat var_0xINPUT_96446)